c FILE /home/rafael/Documents/HappySet/MIHS/inputs/happygen/output/graph_scale_free_k7_p0.3_v50_20241127_082458.txt
c SOURCE This is a scale-free graph formed for the happy graph colouring problem.
c DESCRIPTION It was generated using the problem generator of Rhyd Lewis
c
c GRAPH STATS
c Seed                             = -681866962
c Number of Nodes                  = 50
c Number of colours k              = 7
c Number of pre-assignments        = 15
c Number of links per new node     = 5
c Density                          = 0.191837
c 
c The degrees of nodes 1 to 50, respectively, are as follows 
c [24, 22, 20, 19, 18, 18, 17, 15, 15, 14, 14, 13, 13, 11, 10, 10, 9, 9, 9, 9, 8, 8, 8, 7, 7, 7, 
c  7, 7, 7, 6, 6, 6, 6, 6, 6, 6, 6, 6, 6, 5, 5, 5, 5, 5, 5, 5, 5, 5, 5, 5] 
c  
p edge 50 235 7
e 1 2
e 1 3
e 1 4
e 1 5
e 1 6
e 1 7
e 1 8
e 1 9
e 1 10
e 1 12
e 1 14
e 1 15
e 1 17
e 1 20
e 1 23
e 1 24
e 1 25
e 1 30
e 1 31
e 1 32
e 1 33
e 1 39
e 1 42
e 1 47
e 2 3
e 2 5
e 2 6
e 2 7
e 2 8
e 2 10
e 2 20
e 2 21
e 2 22
e 2 23
e 2 24
e 2 26
e 2 31
e 2 32
e 2 33
e 2 35
e 2 40
e 2 41
e 2 44
e 2 45
e 2 49
e 3 4
e 3 5
e 3 7
e 3 8
e 3 10
e 3 12
e 3 13
e 3 17
e 3 18
e 3 21
e 3 23
e 3 24
e 3 26
e 3 30
e 3 42
e 3 43
e 3 48
e 3 50
e 4 5
e 4 7
e 4 8
e 4 10
e 4 12
e 4 15
e 4 17
e 4 20
e 4 22
e 4 23
e 4 27
e 4 31
e 4 39
e 4 41
e 4 42
e 4 44
e 4 45
e 5 7
e 5 9
e 5 10
e 5 11
e 5 12
e 5 15
e 5 17
e 5 19
e 5 25
e 5 31
e 5 34
e 5 35
e 5 41
e 5 44
e 6 8
e 6 11
e 6 12
e 6 13
e 6 14
e 6 16
e 6 19
e 6 20
e 6 25
e 6 28
e 6 34
e 6 35
e 6 37
e 6 41
e 6 46
e 6 49
e 7 8
e 7 9
e 7 10
e 7 12
e 7 13
e 7 14
e 7 21
e 7 26
e 7 32
e 7 45
e 7 46
e 7 50
e 8 9
e 8 11
e 8 14
e 8 15
e 8 16
e 8 17
e 8 19
e 8 21
e 8 36
e 9 10
e 9 13
e 9 18
e 9 22
e 9 26
e 9 28
e 9 30
e 9 33
e 9 37
e 9 40
e 9 50
e 10 11
e 10 22
e 10 25
e 10 28
e 10 29
e 10 30
e 10 38
e 11 12
e 11 18
e 11 19
e 11 25
e 11 29
e 11 32
e 11 38
e 11 40
e 11 45
e 11 48
e 12 14
e 12 15
e 12 19
e 12 24
e 12 31
e 12 40
e 13 15
e 13 16
e 13 35
e 13 37
e 13 39
e 13 40
e 13 43
e 13 47
e 13 48
e 14 15
e 14 21
e 14 22
e 14 30
e 14 46
e 14 47
e 15 24
e 15 36
e 15 38
e 16 19
e 16 28
e 16 29
e 16 38
e 16 42
e 16 44
e 16 49
e 17 28
e 17 34
e 17 36
e 17 43
e 18 20
e 18 23
e 18 24
e 18 31
e 18 33
e 18 35
e 19 39
e 19 43
e 19 46
e 20 27
e 20 34
e 20 36
e 20 47
e 21 33
e 21 37
e 21 44
e 22 27
e 22 28
e 22 48
e 23 26
e 23 27
e 23 49
e 24 37
e 25 32
e 25 34
e 26 38
e 26 39
e 27 29
e 27 32
e 27 47
e 28 29
e 29 45
e 29 50
e 30 43
e 33 36
e 34 42
e 35 41
e 36 46
e 37 48
e 38 50
e 39 49
n 8 6
n 10 4
n 23 7
n 28 4
n 29 4
n 32 7
n 33 1
n 34 5
n 37 2
n 38 4
n 39 6
n 44 3
n 46 7
n 48 2
n 50 4
